(declare-const a Real)
(declare-const b Real)
(declare-const c Real)
(assert (= (+ (* a b) (* a c) (* b c)) 1))
(assert (> a 0))
(assert (> b 0))
(assert (> c 0))
(assert (not (<= (+ (/ -1 4) (* (/ 64 387420489) (pow (+ (/ 9 2) (* (/ 243 2) (pow 3 (/ 1 3)) (pow a 8) (pow b 8) (pow c 8) (pow (+ (pow a -1) (pow b -1) (pow c -1) (* 6 a) (* 6 b) (* 6 c)) (/ 8 3)))) 9))) 0)))
(check-sat)
(get-model)
(exit)